p cnf 24 16
13 -20 16 0
-8 -17 19 -14 15 -6 -11 3 -16 9 -10 23 20 -4 -12 0
-14 -24 13 3 11 -5 19 12 -10 -21 -4 -18 8 -20 -9 7 0
11 -2 0
-6 22 -10 1 2 -12 14 -20 -21 -4 3 7 -17 11 -16 -15 19 5 23 18 8 -13 0
-7 12 -11 -6 0
-20 -1 13 -11 17 -18 0
17 -22 0
21 17 -1 0
-24 -13 8 20 2 -4 -17 -5 12 -16 11 7 14 -15 -19 -3 -21 0
19 12 9 -16 -23 3 13 22 14 20 -21 17 -5 -4 24 15 1 -6 0
19 6 17 0
16 15 -3 -14 0
19 14 0
-16 17 2 0
17 -23 0
